c n orig vars 458
p cnf 893 1628
-620 0
-800 144 0
-800 145 0
800 -144 -145 0
459 -299 0
459 -300 0
-459 299 300 0
460 -426 0
460 -425 0
-460 426 425 0
461 -418 0
461 -417 0
-461 418 417 0
462 -420 0
462 -419 0
-462 420 419 0
463 -645 0
463 -75 0
-463 645 75 0
464 -569 0
464 -568 0
-464 569 568 0
465 -464 0
465 -463 0
465 -462 0
465 -461 0
465 -460 0
465 -459 0
465 -467 0
465 -466 0
465 -577 0
465 -576 0
465 -575 0
465 -574 0
465 -573 0
465 -572 0
465 -571 0
465 -570 0
-465 464 463 462 461 460 459 467 466 577 576 575 574 573 572 571 570 0
466 -303 0
466 -304 0
-466 303 304 0
467 -297 0
467 -298 0
-467 297 298 0
468 -593 0
468 -416 0
-468 593 416 0
469 -621 0
469 -420 0
-469 621 420 0
470 -471 0
470 -476 0
-470 471 476 0
471 -477 0
471 -797 0
-471 477 797 0
472 -473 0
472 -470 0
-472 473 470 0
473 -169 0
473 -170 0
473 -172 0
-473 169 170 172 0
474 -297 0
474 -170 0
474 -285 0
474 -303 0
474 -284 0
474 -174 0
-474 297 170 285 303 284 174 0
475 -287 0
475 -286 0
475 -170 0
475 -299 0
475 -426 0
475 -418 0
-475 287 286 170 299 426 418 0
476 -297 0
476 -474 0
-476 297 474 0
477 -171 0
477 -298 0
477 -297 0
477 -168 0
477 -167 0
-477 171 298 297 168 167 0
478 -132 0
478 -250 0
478 -257 0
478 -256 0
-478 132 250 257 256 0
680 -815 0
680 -257 0
-680 815 257 0
-480 481 0
-480 488 0
480 -481 -488 0
481 -489 0
481 -333 0
-481 489 333 0
482 -332 0
482 -688 0
-482 332 688 0
483 -338 0
483 -337 0
483 -332 0
483 -331 0
483 -334 0
-483 338 337 332 331 334 0
484 -485 0
484 -482 0
-484 485 482 0
485 -483 0
485 -480 0
-485 483 480 0
486 -198 0
486 -689 0
-486 198 689 0
487 -192 0
487 -197 0
487 -198 0
487 -336 0
487 -335 0
-487 192 197 198 336 335 0
488 -598 0
488 -111 0
-488 598 111 0
489 -599 0
489 -751 0
-489 599 751 0
490 -807 0
490 -804 0
-490 807 804 0
491 -490 0
491 -806 0
-491 490 806 0
492 -494 0
492 -491 0
-492 494 491 0
493 -492 0
493 -495 0
-493 492 495 0
494 -322 0
494 -41 0
494 -42 0
494 -317 0
494 -318 0
-494 322 41 42 317 318 0
495 -42 0
495 -749 0
-495 42 749 0
496 -499 0
496 -428 0
-496 499 428 0
497 -440 0
497 -439 0
497 -442 0
497 -441 0
-497 440 439 442 441 0
498 -340 0
498 -428 0
498 -321 0
-498 340 428 321 0
499 -498 0
499 -493 0
-499 498 493 0
500 -156 0
500 -155 0
500 -154 0
500 -151 0
500 -150 0
-500 156 155 154 151 150 0
501 -508 0
501 -153 0
-501 508 153 0
502 -827 0
502 -215 0
-502 827 215 0
503 -500 0
503 -501 0
-503 500 501 0
-504 505 0
-504 502 0
504 -505 -502 0
505 -503 0
505 -154 0
-505 503 154 0
-506 569 0
-506 504 0
506 -569 -504 0
-507 844 0
-507 845 0
-507 852 0
507 -844 -845 -852 0
508 -509 0
508 -821 0
-508 509 821 0
509 -152 0
509 -153 0
509 -149 0
-509 152 153 149 0
693 -694 0
693 -101 0
-693 694 101 0
694 -849 0
694 -755 0
-694 849 755 0
-512 186 0
-512 185 0
512 -186 -185 0
-513 184 0
-513 183 0
513 -184 -183 0
-514 305 0
-514 306 0
514 -305 -306 0
-515 301 0
-515 302 0
515 -301 -302 0
-516 45 0
-516 46 0
516 -45 -46 0
-517 178 0
-517 177 0
517 -178 -177 0
-518 182 0
-518 181 0
518 -182 -181 0
-519 180 0
-519 179 0
519 -180 -179 0
-520 49 0
-520 50 0
520 -49 -50 0
-521 47 0
-521 48 0
521 -47 -48 0
522 -541 0
522 -246 0
-522 541 246 0
523 -375 0
523 -384 0
523 -376 0
-523 375 384 376 0
524 -242 0
524 -247 0
524 -241 0
-524 242 247 241 0
525 -524 0
525 -850 0
-525 524 850 0
526 -527 0
526 -656 0
-526 527 656 0
527 -91 0
527 -90 0
527 -92 0
527 -89 0
527 -94 0
-527 91 90 92 89 94 0
528 -87 0
528 -357 0
528 -358 0
528 -86 0
528 -85 0
-528 87 357 358 86 85 0
529 -526 0
529 -92 0
-529 526 92 0
530 -528 0
530 -529 0
-530 528 529 0
531 -358 0
531 -364 0
-531 358 364 0
532 -363 0
532 -364 0
532 -88 0
-532 363 364 88 0
533 -530 0
533 -531 0
-533 530 531 0
534 -360 0
534 -356 0
-534 360 356 0
535 -532 0
535 -533 0
-535 532 533 0
536 -523 0
536 -522 0
-536 523 522 0
537 -536 0
537 -384 0
-537 536 384 0
538 -539 0
538 -700 0
-538 539 700 0
539 -5 0
539 -6 0
539 -129 0
539 -7 0
539 -8 0
-539 5 6 129 7 8 0
540 -99 0
540 -100 0
540 -246 0
540 -105 0
540 -106 0
-540 99 100 246 105 106 0
541 -540 0
541 -543 0
-541 540 543 0
542 -245 0
542 -379 0
542 -248 0
-542 245 379 248 0
543 -705 0
543 -580 0
-543 705 580 0
544 -122 0
544 -230 0
-544 122 230 0
545 -550 0
545 -237 0
-545 550 237 0
546 -547 0
546 -230 0
-546 547 230 0
547 -544 0
547 -545 0
-547 544 545 0
548 -825 0
548 -549 0
-548 825 549 0
549 -756 0
549 -240 0
-549 756 240 0
550 -551 0
550 -548 0
-550 551 548 0
551 -121 0
551 -237 0
551 -130 0
-551 121 237 130 0
552 -553 0
552 -74 0
-552 553 74 0
553 -554 0
553 -555 0
-553 554 555 0
554 -436 0
554 -435 0
554 -74 0
554 -438 0
554 -437 0
-554 436 435 74 438 437 0
555 -641 0
555 -642 0
-555 641 642 0
629 -635 0
629 -52 0
-629 635 52 0
557 -179 0
557 -185 0
557 -183 0
557 -306 0
557 -302 0
-557 179 185 183 306 302 0
558 -559 0
558 -552 0
-558 559 552 0
559 -324 0
559 -325 0
559 -323 0
559 -326 0
559 -73 0
-559 324 325 323 326 73 0
560 -563 0
560 -562 0
-560 563 562 0
561 -394 0
561 -388 0
561 -390 0
561 -44 0
561 -339 0
-561 394 388 390 44 339 0
562 -183 0
562 -637 0
-562 183 637 0
563 -557 0
563 -629 0
-563 557 629 0
564 -46 0
564 -183 0
564 -373 0
564 -400 0
564 -52 0
564 -402 0
564 -403 0
564 -366 0
564 -396 0
564 -397 0
564 -398 0
564 -399 0
564 -69 0
564 -409 0
564 -60 0
564 -567 0
-564 46 183 373 400 52 402 403 366 396 397 398 399 69 409 60 567 0
565 -369 0
565 -372 0
565 -449 0
565 -371 0
565 -374 0
-565 369 372 449 371 374 0
566 -561 0
566 -560 0
-566 561 560 0
567 -59 0
567 -58 0
567 -57 0
-567 59 58 57 0
568 -506 0
568 -507 0
-568 506 507 0
569 -720 0
569 -721 0
-569 720 721 0
570 -774 0
570 -773 0
570 -776 0
570 -775 0
570 -770 0
570 -769 0
570 -772 0
570 -771 0
570 -778 0
570 -777 0
570 -791 0
570 -792 0
570 -793 0
570 -794 0
570 -787 0
570 -788 0
-570 774 773 776 775 770 769 772 771 778 777 791 792 793 794 787 788 0
571 -118 0
571 -117 0
571 -120 0
571 -119 0
-571 118 117 120 119 0
572 -277 0
572 -114 0
572 -113 0
572 -283 0
572 -115 0
-572 277 114 113 283 115 0
573 -131 0
573 -251 0
573 -260 0
573 -261 0
573 -112 0
-573 131 251 260 261 112 0
574 -883 0
574 -880 0
574 -881 0
574 -874 0
574 -875 0
-574 883 880 881 874 875 0
575 -878 0
575 -879 0
575 -876 0
575 -877 0
575 -882 0
-575 878 879 876 877 882 0
576 -518 0
576 -517 0
576 -516 0
576 -521 0
576 -520 0
-576 518 517 516 521 520 0
577 -515 0
577 -514 0
577 -513 0
577 -512 0
577 -519 0
-577 515 514 513 512 519 0
-578 579 0
-578 584 0
-578 585 0
-578 582 0
578 -579 -584 -585 -582 0
579 -583 0
579 -265 0
-579 583 265 0
580 -401 0
580 -779 0
-580 401 779 0
581 -407 0
581 -406 0
581 -401 0
581 -205 0
581 -264 0
-581 407 406 401 205 264 0
582 -783 0
582 -62 0
-582 783 62 0
583 -586 0
583 -587 0
-583 586 587 0
584 -781 0
584 -201 0
-584 781 201 0
585 -782 0
585 -204 0
-585 782 204 0
586 -262 0
586 -265 0
586 -263 0
-586 262 265 263 0
587 -891 0
587 -890 0
-587 891 890 0
588 -290 0
588 -286 0
588 -293 0
-588 290 286 293 0
589 -286 0
589 -596 0
-589 286 596 0
590 -597 0
590 -802 0
-590 597 802 0
591 -590 0
591 -418 0
-591 590 418 0
592 -288 0
592 -416 0
592 -291 0
-592 288 416 291 0
593 -592 0
593 -595 0
-593 592 595 0
594 -588 0
594 -591 0
-594 588 591 0
595 -594 0
595 -589 0
-595 594 589 0
596 -286 0
596 -416 0
-596 286 416 0
597 -417 0
597 -418 0
597 -292 0
-597 417 418 292 0
598 -601 0
598 -600 0
-598 601 600 0
599 -328 0
599 -333 0
599 -71 0
-599 328 333 71 0
600 -603 0
600 -281 0
-600 603 281 0
601 -279 0
601 -111 0
601 -280 0
-601 279 111 280 0
602 -282 0
602 -281 0
602 -116 0
-602 282 281 116 0
603 -602 0
603 -605 0
-603 602 605 0
604 -606 0
604 -751 0
-604 606 751 0
605 -604 0
605 -607 0
-605 604 607 0
606 -289 0
606 -294 0
606 -295 0
-606 289 294 295 0
607 -294 0
607 -687 0
-607 294 687 0
608 -609 0
608 -537 0
-608 609 537 0
609 -382 0
609 -381 0
609 -383 0
-609 382 381 383 0
610 -738 0
610 -737 0
-610 738 737 0
-611 612 0
-611 613 0
611 -612 -613 0
612 -614 0
612 -615 0
-612 614 615 0
613 -525 0
613 -247 0
-613 525 247 0
614 -616 0
614 -617 0
-614 616 617 0
615 -379 0
615 -542 0
-615 379 542 0
616 -378 0
616 -379 0
616 -380 0
-616 378 379 380 0
617 -608 0
617 -381 0
-617 608 381 0
618 -425 0
618 -426 0
618 -162 0
-618 425 426 162 0
619 -287 0
619 -420 0
-619 287 420 0
-620 465 0
620 -465 0
621 -622 0
621 -623 0
-621 622 623 0
622 -419 0
622 -420 0
622 -163 0
-622 419 420 163 0
623 -624 0
623 -625 0
-623 624 625 0
624 -626 0
624 -627 0
-624 626 627 0
625 -287 0
625 -619 0
-625 287 619 0
626 -164 0
626 -287 0
626 -161 0
-626 164 287 161 0
627 -628 0
627 -426 0
-627 628 426 0
628 -618 0
628 -802 0
-628 618 802 0
556 -630 0
556 -846 0
-556 630 846 0
630 -848 0
630 -611 0
-630 848 611 0
631 -68 0
631 -53 0
631 -67 0
-631 68 53 67 0
632 -633 0
632 -143 0
-632 633 143 0
633 -634 0
633 -639 0
-633 634 639 0
634 -253 0
634 -255 0
634 -143 0
634 -385 0
634 -392 0
-634 253 255 143 385 392 0
635 -636 0
635 -870 0
-635 636 870 0
636 -56 0
636 -52 0
636 -55 0
-636 56 52 55 0
637 -183 0
637 -390 0
637 -54 0
-637 183 390 54 0
638 -631 0
638 -632 0
-638 631 632 0
639 -640 0
639 -766 0
-639 640 766 0
640 -765 0
640 -764 0
-640 765 764 0
641 -497 0
641 -496 0
-641 497 496 0
642 -439 0
642 -750 0
-642 439 750 0
643 -79 0
643 -80 0
643 -207 0
643 -81 0
643 -82 0
-643 79 80 207 81 82 0
644 -825 0
644 -824 0
-644 825 824 0
645 -646 0
645 -76 0
-645 646 76 0
646 -647 0
646 -77 0
-646 647 77 0
647 -648 0
647 -649 0
-647 648 649 0
648 -650 0
648 -78 0
-648 650 78 0
649 -422 0
649 -421 0
-649 422 421 0
650 -651 0
650 -652 0
-650 651 652 0
651 -83 0
651 -84 0
-651 83 84 0
652 -424 0
652 -423 0
-652 424 423 0
653 -218 0
653 -668 0
-653 218 668 0
654 -675 0
654 -676 0
-654 675 676 0
655 -657 0
655 -841 0
-655 657 841 0
656 -655 0
656 -658 0
-656 655 658 0
657 -223 0
657 -222 0
657 -93 0
-657 223 222 93 0
658 -222 0
658 -660 0
-658 222 660 0
659 -662 0
659 -661 0
-659 662 661 0
660 -222 0
660 -358 0
660 -92 0
-660 222 358 92 0
661 -654 0
661 -653 0
-661 654 653 0
662 -361 0
662 -362 0
662 -27 0
-662 361 362 27 0
-663 19 0
-663 18 0
663 -19 -18 0
-664 21 0
-664 20 0
664 -21 -20 0
-665 342 0
-665 343 0
665 -342 -343 0
-666 346 0
-666 347 0
666 -346 -347 0
667 -224 0
667 -218 0
667 -31 0
-667 224 218 31 0
668 -218 0
668 -362 0
-668 218 362 0
-669 312 0
-669 311 0
669 -312 -311 0
-670 137 0
-670 138 0
670 -137 -138 0
671 -672 0
671 -673 0
-671 672 673 0
672 -674 0
672 -841 0
-672 674 841 0
673 -224 0
673 -667 0
-673 224 667 0
674 -225 0
674 -224 0
674 -278 0
-674 225 224 278 0
675 -275 0
675 -219 0
675 -218 0
675 -25 0
675 -26 0
-675 275 219 218 25 26 0
676 -677 0
676 -31 0
-676 677 31 0
677 -678 0
677 -671 0
-677 678 671 0
678 -32 0
678 -29 0
678 -31 0
678 -30 0
678 -35 0
-678 32 29 31 30 35 0
679 -511 0
679 -448 0
-679 511 448 0
479 -457 0
479 -327 0
479 -450 0
479 -72 0
-479 457 327 450 72 0
681 -479 0
681 -679 0
-681 479 679 0
682 -443 0
682 -447 0
682 -458 0
-682 443 447 458 0
683 -682 0
683 -681 0
-683 682 681 0
684 -848 0
684 -611 0
-684 848 611 0
685 -684 0
685 -846 0
-685 684 846 0
686 -445 0
686 -446 0
686 -444 0
-686 445 446 444 0
687 -294 0
687 -281 0
687 -333 0
-687 294 281 333 0
688 -111 0
688 -332 0
688 -198 0
-688 111 332 198 0
689 -240 0
689 -198 0
689 -207 0
689 -215 0
689 -154 0
689 -148 0
689 -153 0
-689 240 198 207 215 154 148 153 0
690 -691 0
690 -692 0
-690 691 692 0
691 -296 0
691 -304 0
691 -303 0
691 -134 0
691 -252 0
-691 296 304 303 134 252 0
-692 693 0
-692 753 0
692 -693 -753 0
510 -329 0
510 -448 0
510 -330 0
-510 329 448 330 0
511 -510 0
511 -556 0
-511 510 556 0
695 -2 0
695 -236 0
695 -3 0
-695 2 236 3 0
696 -695 0
696 -698 0
-696 695 698 0
697 -756 0
697 -240 0
-697 756 240 0
698 -825 0
698 -697 0
-698 825 697 0
699 -702 0
699 -701 0
-699 702 701 0
700 -699 0
700 -231 0
-700 699 231 0
701 -696 0
701 -236 0
-701 696 236 0
702 -1 0
702 -231 0
-702 1 231 0
703 -9 0
703 -10 0
703 -4 0
703 -70 0
703 -408 0
-703 9 10 4 70 408 0
704 -703 0
704 -712 0
-704 703 712 0
705 -581 0
705 -578 0
-705 581 578 0
706 -230 0
706 -231 0
706 -257 0
706 -228 0
706 -4 0
706 -129 0
706 -127 0
706 -259 0
706 -33 0
706 -36 0
706 -158 0
706 -138 0
706 -28 0
706 -404 0
-706 230 231 257 228 4 129 127 259 33 36 158 138 28 404 0
707 -410 0
707 -229 0
707 -405 0
-707 410 229 405 0
708 -707 0
708 -710 0
-708 707 710 0
709 -756 0
709 -240 0
-709 756 240 0
710 -825 0
710 -709 0
-710 825 709 0
711 -714 0
711 -713 0
-711 714 713 0
712 -711 0
712 -228 0
-712 711 228 0
713 -708 0
713 -229 0
-713 708 229 0
714 -411 0
714 -228 0
-714 411 228 0
793 -218 0
793 -219 0
-793 218 219 0
794 -358 0
794 -357 0
-794 358 357 0
-799 146 0
-799 147 0
799 -146 -147 0
718 -796 0
718 -795 0
-718 796 795 0
719 -356 0
719 -355 0
-719 356 355 0
720 -722 0
720 -723 0
-720 722 723 0
721 -659 0
721 -362 0
-721 659 362 0
722 -724 0
722 -356 0
-722 724 356 0
723 -535 0
723 -364 0
-723 535 364 0
724 -725 0
724 -726 0
-724 725 726 0
725 -355 0
725 -356 0
725 -427 0
-725 355 356 427 0
726 -727 0
726 -728 0
-726 727 728 0
727 -835 0
727 -834 0
-727 835 834 0
728 -360 0
728 -534 0
-728 360 534 0
729 -610 0
729 -33 0
-729 610 33 0
730 -274 0
730 -28 0
730 -377 0
-730 274 28 377 0
731 -738 0
731 -737 0
-731 738 737 0
732 -731 0
732 -33 0
-732 731 33 0
733 -276 0
733 -36 0
733 -34 0
-733 276 36 34 0
734 -733 0
734 -732 0
-734 733 732 0
735 -730 0
735 -729 0
-735 730 729 0
736 -40 0
736 -158 0
736 -160 0
736 -39 0
736 -38 0
736 -37 0
-736 40 158 160 39 38 37 0
737 -478 0
737 -680 0
-737 478 680 0
738 -98 0
738 -33 0
738 -95 0
-738 98 33 95 0
739 -734 0
739 -36 0
-739 734 36 0
740 -165 0
740 -158 0
740 -166 0
-740 165 158 166 0
741 -747 0
741 -746 0
-741 747 746 0
742 -735 0
742 -28 0
-742 735 28 0
743 -741 0
743 -748 0
-743 741 748 0
-744 743 0
-744 742 0
744 -743 -742 0
745 -740 0
745 -739 0
-745 740 739 0
746 -745 0
746 -158 0
-746 745 158 0
747 -159 0
747 -160 0
747 -157 0
-747 159 160 157 0
748 -160 0
748 -736 0
-748 160 736 0
749 -439 0
749 -42 0
749 -428 0
749 -113 0
749 -109 0
749 -260 0
-749 439 42 428 113 109 260 0
750 -450 0
750 -245 0
750 -74 0
750 -323 0
750 -449 0
750 -448 0
750 -447 0
750 -108 0
750 -446 0
750 -107 0
750 -439 0
-750 450 245 74 323 449 448 447 108 446 107 439 0
-751 752 0
-751 753 0
751 -752 -753 0
752 -754 0
752 -101 0
-752 754 101 0
753 -638 0
753 -53 0
-753 638 53 0
754 -849 0
754 -755 0
-754 849 755 0
755 -566 0
755 -390 0
-755 566 390 0
756 -757 0
756 -147 0
-756 757 147 0
757 -758 0
757 -866 0
-757 758 866 0
758 -238 0
758 -145 0
758 -147 0
758 -97 0
758 -234 0
-758 238 145 147 97 234 0
759 -187 0
759 -188 0
759 -403 0
759 -193 0
759 -194 0
-759 187 188 403 193 194 0
760 -759 0
760 -870 0
-760 759 870 0
761 -760 0
761 -403 0
-761 760 403 0
762 -189 0
762 -400 0
762 -190 0
-762 189 400 190 0
763 -762 0
763 -761 0
-763 762 761 0
764 -763 0
764 -400 0
-764 763 400 0
765 -50 0
765 -48 0
765 -46 0
765 -177 0
765 -181 0
-765 50 48 46 177 181 0
766 -46 0
766 -768 0
-766 46 768 0
767 -487 0
767 -484 0
-767 487 484 0
768 -46 0
768 -143 0
768 -191 0
-768 46 143 191 0
769 -831 0
769 -830 0
769 -666 0
-769 831 830 666 0
770 -309 0
770 -320 0
770 -319 0
770 -348 0
770 -349 0
-770 309 320 319 348 349 0
771 -17 0
771 -16 0
771 -15 0
-771 17 16 15 0
772 -665 0
772 -664 0
772 -663 0
-772 665 664 663 0
773 -799 0
773 -800 0
-773 799 800 0
774 -789 0
774 -790 0
-774 789 790 0
775 -314 0
775 -313 0
775 -308 0
775 -307 0
775 -310 0
-775 314 313 308 307 310 0
776 -670 0
776 -669 0
-776 670 669 0
777 -224 0
777 -225 0
-777 224 225 0
778 -14 0
778 -13 0
778 -12 0
778 -226 0
778 -227 0
-778 14 13 12 226 227 0
779 -381 0
779 -401 0
779 -246 0
779 -384 0
779 -62 0
779 -319 0
779 -387 0
779 -247 0
779 -391 0
779 -354 0
779 -201 0
779 -204 0
-779 381 401 246 384 62 319 387 247 391 354 201 204 0
780 -206 0
780 -267 0
780 -117 0
780 -269 0
-780 206 267 117 269 0
781 -200 0
781 -201 0
781 -199 0
-781 200 201 199 0
782 -203 0
782 -204 0
782 -61 0
-782 203 204 61 0
783 -63 0
783 -64 0
783 -62 0
783 -65 0
783 -66 0
-783 63 64 62 65 66 0
806 -104 0
806 -104 0
-806 104 104 0
807 -805 0
807 -315 0
-807 805 315 0
787 -360 0
787 -359 0
-787 360 359 0
788 -843 0
788 -842 0
788 -719 0
-788 843 842 719 0
-789 142 0
-789 22 0
789 -142 -22 0
-790 140 0
-790 141 0
790 -140 -141 0
791 -222 0
791 -223 0
-791 222 223 0
792 -220 0
792 -221 0
-792 220 221 0
715 -472 0
715 -170 0
-715 472 170 0
716 -300 0
716 -299 0
716 -175 0
-716 300 299 175 0
795 -299 0
795 -475 0
-795 299 475 0
796 -716 0
796 -715 0
-796 716 715 0
797 -690 0
797 -303 0
-797 690 303 0
798 -173 0
798 -174 0
798 -176 0
-798 173 174 176 0
717 -798 0
717 -797 0
-717 798 797 0
814 -812 0
814 -819 0
-814 812 819 0
801 -717 0
801 -174 0
-801 717 174 0
-802 801 0
-802 718 0
802 -801 -718 0
815 -814 0
815 -813 0
-815 814 813 0
804 -272 0
804 -104 0
804 -103 0
804 -110 0
-804 272 104 103 110 0
805 -810 0
805 -811 0
-805 810 811 0
784 -126 0
784 -125 0
784 -127 0
784 -124 0
784 -123 0
-784 126 125 127 124 123 0
785 -784 0
785 -546 0
-785 784 546 0
808 -786 0
808 -37 0
-808 786 37 0
809 -857 0
809 -856 0
-809 857 856 0
810 -316 0
810 -315 0
810 -23 0
-810 316 315 23 0
-811 808 0
-811 809 0
811 -808 -809 0
812 -136 0
812 -254 0
812 -259 0
812 -258 0
812 -128 0
-812 136 254 259 258 128 0
813 -259 0
813 -706 0
-813 259 706 0
786 -803 0
786 -744 0
-786 803 744 0
803 -24 0
803 -37 0
803 -451 0
-803 24 37 451 0
816 -704 0
816 -4 0
-816 704 4 0
817 -538 0
817 -129 0
-817 538 129 0
818 -785 0
818 -127 0
-818 785 127 0
-819 818 0
-819 817 0
-819 816 0
819 -818 -817 -816 0
820 -823 0
820 -822 0
-820 823 822 0
821 -820 0
821 -148 0
-821 820 148 0
822 -825 0
822 -824 0
-822 825 824 0
823 -211 0
823 -210 0
823 -148 0
823 -213 0
823 -212 0
-823 211 210 148 213 212 0
824 -767 0
824 -486 0
-824 767 486 0
825 -244 0
825 -243 0
825 -240 0
825 -239 0
-825 244 243 240 239 0
826 -214 0
826 -217 0
826 -215 0
826 -216 0
826 -208 0
-826 214 217 215 216 208 0
827 -826 0
827 -829 0
-827 826 829 0
828 -643 0
828 -644 0
-828 643 644 0
829 -828 0
829 -207 0
-829 828 207 0
-830 344 0
-830 345 0
830 -344 -345 0
-831 350 0
-831 351 0
831 -350 -351 0
832 -432 0
832 -433 0
832 -431 0
832 -434 0
832 -352 0
-832 432 433 431 434 352 0
833 -832 0
833 -839 0
-833 832 839 0
834 -833 0
834 -431 0
-834 833 431 0
835 -341 0
835 -359 0
835 -360 0
835 -429 0
835 -430 0
-835 341 359 360 429 430 0
836 -221 0
836 -220 0
836 -353 0
-836 221 220 353 0
837 -220 0
837 -840 0
-837 220 840 0
838 -836 0
838 -841 0
-838 836 841 0
839 -838 0
839 -837 0
-839 838 837 0
840 -220 0
840 -360 0
840 -431 0
-840 220 360 431 0
-841 468 0
-841 469 0
841 -468 -469 0
842 -364 0
842 -363 0
-842 364 363 0
843 -362 0
843 -361 0
-843 362 361 0
844 -853 0
844 -446 0
-844 853 446 0
845 -683 0
845 -447 0
-845 683 447 0
846 -245 0
846 -847 0
-846 245 847 0
847 -450 0
847 -245 0
847 -449 0
847 -448 0
847 -447 0
847 -446 0
-847 450 245 449 448 447 446 0
848 -249 0
848 -245 0
-848 249 245 0
849 -96 0
849 -101 0
849 -102 0
-849 96 101 102 0
850 -851 0
850 -246 0
-850 851 246 0
851 -540 0
851 -543 0
-851 540 543 0
852 -558 0
852 -323 0
-852 558 323 0
853 -686 0
853 -685 0
-853 686 685 0
854 -861 0
854 -40 0
-854 861 40 0
855 -452 0
855 -453 0
855 -454 0
-855 452 453 454 0
856 -453 0
856 -862 0
-856 453 862 0
857 -855 0
857 -854 0
-857 855 854 0
858 -863 0
858 -744 0
-858 863 744 0
859 -858 0
859 -39 0
-859 858 39 0
860 -455 0
860 -40 0
860 -456 0
-860 455 40 456 0
861 -860 0
861 -859 0
-861 860 859 0
862 -40 0
862 -453 0
862 -412 0
862 -413 0
862 -273 0
862 -12 0
-862 40 453 412 413 273 12 0
863 -414 0
863 -39 0
863 -415 0
-863 414 39 415 0
864 -22 0
864 -865 0
-864 22 865 0
865 -230 0
865 -240 0
865 -231 0
865 -22 0
865 -228 0
865 -147 0
865 -229 0
865 -236 0
865 -237 0
-865 230 240 231 22 228 147 229 236 237 0
866 -867 0
866 -864 0
-866 867 864 0
867 -235 0
867 -141 0
867 -22 0
867 -232 0
867 -233 0
-867 235 141 22 232 233 0
868 -365 0
868 -368 0
868 -366 0
868 -367 0
868 -370 0
-868 365 368 366 367 370 0
869 -872 0
869 -873 0
-869 872 873 0
870 -871 0
870 -366 0
-870 871 366 0
871 -868 0
871 -869 0
-871 868 869 0
872 -565 0
872 -507 0
-872 565 507 0
873 -449 0
873 -564 0
-873 449 564 0
-874 135 0
-874 255 0
874 -135 -255 0
-875 133 0
-875 253 0
875 -133 -253 0
-876 11 0
-876 390 0
876 -11 -390 0
-877 389 0
-877 388 0
877 -389 -388 0
-878 51 0
-878 339 0
878 -51 -339 0
-879 43 0
-879 44 0
879 -43 -44 0
-880 386 0
-880 385 0
880 -386 -385 0
-881 139 0
-881 143 0
881 -139 -143 0
-882 395 0
-882 394 0
882 -395 -394 0
-883 393 0
-883 392 0
883 -393 -392 0
884 -270 0
884 -271 0
884 -267 0
884 -209 0
884 -84 0
-884 270 271 267 209 84 0
885 -884 0
885 -893 0
-885 884 893 0
886 -885 0
886 -267 0
-886 885 267 0
887 -119 0
887 -120 0
887 -117 0
887 -118 0
-887 119 120 117 118 0
888 -887 0
888 -886 0
-888 887 886 0
889 -268 0
889 -269 0
889 -266 0
-889 268 269 266 0
890 -269 0
890 -780 0
-890 269 780 0
891 -889 0
891 -888 0
-891 889 888 0
892 -196 0
892 -195 0
892 -206 0
892 -202 0
892 -83 0
-892 196 195 206 202 83 0
893 -892 0
893 -206 0
-893 892 206 0
